
Gurobi 6.5.1 (win64) logging started 07/05/16 11:08:02

Optimize a model with 1009 rows, 5040 columns and 6048 nonzeros
Coefficient statistics:
  Matrix range    [1e+00, 1e+00]
  Objective range [1e+01, 3e+03]
  Bounds range    [1e+00, 2e+03]
  RHS range       [2e+02, 2e+04]
Presolve removed 840 rows and 4670 columns
Presolve time: 0.18s
Presolved: 169 rows, 370 columns, 538 nonzeros

Iteration    Objective       Primal Inf.    Dual Inf.      Time
       0    4.3512966e+06   5.551735e+04   0.000000e+00      0s
     158    5.8093335e+06   0.000000e+00   0.000000e+00      0s

Solved in 158 iterations and 0.25 seconds
Optimal objective  5.809333499e+06
Optimize a model with 1177 rows, 5040 columns and 6216 nonzeros
Coefficient statistics:
  Matrix range    [1e+00, 1e+00]
  Objective range [1e+01, 3e+03]
  Bounds range    [1e+00, 2e+03]
  RHS range       [8e+00, 2e+04]
Presolve removed 1009 rows and 3864 columns
Presolve time: 0.03s
Presolved: 168 rows, 1176 columns, 1176 nonzeros

Iteration    Objective       Primal Inf.    Dual Inf.      Time
       0    0.0000000e+00   2.594095e+05   0.000000e+00      0s
     168    5.8093335e+06   0.000000e+00   0.000000e+00      0s

Solved in 168 iterations and 0.05 seconds
Optimal objective  5.809333499e+06
Optimize a model with 1009 rows, 5040 columns and 6048 nonzeros
Coefficient statistics:
  Matrix range    [1e+00, 1e+00]
  Objective range [1e+01, 3e+03]
  Bounds range    [1e+00, 2e+03]
  RHS range       [2e+02, 2e+04]
Presolve removed 840 rows and 4670 columns
Presolve time: 0.03s
Presolved: 169 rows, 370 columns, 538 nonzeros

Iteration    Objective       Primal Inf.    Dual Inf.      Time
       0    4.3512966e+06   5.551735e+04   0.000000e+00      0s
     158    5.8093335e+06   0.000000e+00   0.000000e+00      0s

Solved in 158 iterations and 0.05 seconds
Optimal objective  5.809333499e+06
Optimize a model with 1177 rows, 5040 columns and 6216 nonzeros
Coefficient statistics:
  Matrix range    [1e+00, 1e+00]
  Objective range [1e+01, 3e+03]
  Bounds range    [1e+00, 2e+03]
  RHS range       [8e+00, 2e+04]
Presolve removed 1009 rows and 3864 columns
Presolve time: 0.02s
Presolved: 168 rows, 1176 columns, 1176 nonzeros

Iteration    Objective       Primal Inf.    Dual Inf.      Time
       0    0.0000000e+00   2.594095e+05   0.000000e+00      0s
     168    5.8093335e+06   0.000000e+00   0.000000e+00      0s

Solved in 168 iterations and 0.04 seconds
Optimal objective  5.809333499e+06
Optimize a model with 1009 rows, 5040 columns and 6048 nonzeros
Coefficient statistics:
  Matrix range    [1e+00, 1e+00]
  Objective range [1e+01, 3e+03]
  Bounds range    [1e+00, 2e+03]
  RHS range       [2e+02, 2e+04]
Presolve removed 840 rows and 4670 columns
Presolve time: 0.03s
Presolved: 169 rows, 370 columns, 538 nonzeros

Iteration    Objective       Primal Inf.    Dual Inf.      Time
       0    4.3512966e+06   5.551735e+04   0.000000e+00      0s
     158    5.8093335e+06   0.000000e+00   0.000000e+00      0s

Solved in 158 iterations and 0.05 seconds
Optimal objective  5.809333499e+06
Optimize a model with 1177 rows, 5040 columns and 6216 nonzeros
Coefficient statistics:
  Matrix range    [1e+00, 1e+00]
  Objective range [1e+01, 3e+03]
  Bounds range    [1e+00, 2e+03]
  RHS range       [8e+00, 2e+04]
Presolve removed 1009 rows and 3864 columns
Presolve time: 0.02s
Presolved: 168 rows, 1176 columns, 1176 nonzeros

Iteration    Objective       Primal Inf.    Dual Inf.      Time
       0    0.0000000e+00   2.594095e+05   0.000000e+00      0s
     168    5.8093335e+06   0.000000e+00   0.000000e+00      0s

Solved in 168 iterations and 0.05 seconds
Optimal objective  5.809333499e+06
Optimize a model with 1009 rows, 5040 columns and 6048 nonzeros
Coefficient statistics:
  Matrix range    [1e+00, 1e+00]
  Objective range [1e+01, 3e+03]
  Bounds range    [1e+00, 2e+03]
  RHS range       [2e+02, 2e+04]
Presolve removed 840 rows and 4670 columns
Presolve time: 0.03s
Presolved: 169 rows, 370 columns, 538 nonzeros

Iteration    Objective       Primal Inf.    Dual Inf.      Time
       0    4.3512966e+06   5.551735e+04   0.000000e+00      0s
     158    5.8093335e+06   0.000000e+00   0.000000e+00      0s

Solved in 158 iterations and 0.05 seconds
Optimal objective  5.809333499e+06
Optimize a model with 1177 rows, 5040 columns and 6216 nonzeros
Coefficient statistics:
  Matrix range    [1e+00, 1e+00]
  Objective range [1e+01, 3e+03]
  Bounds range    [1e+00, 2e+03]
  RHS range       [8e+00, 2e+04]
Presolve removed 1009 rows and 3864 columns
Presolve time: 0.02s
Presolved: 168 rows, 1176 columns, 1176 nonzeros

Iteration    Objective       Primal Inf.    Dual Inf.      Time
       0    0.0000000e+00   2.594095e+05   0.000000e+00      0s
     168    5.8093335e+06   0.000000e+00   0.000000e+00      0s

Solved in 168 iterations and 0.04 seconds
Optimal objective  5.809333499e+06
Optimize a model with 1009 rows, 5040 columns and 6048 nonzeros
Coefficient statistics:
  Matrix range    [1e+00, 1e+00]
  Objective range [1e+01, 3e+03]
  Bounds range    [1e+00, 2e+03]
  RHS range       [2e+02, 2e+04]
Presolve removed 840 rows and 4670 columns
Presolve time: 0.02s
Presolved: 169 rows, 370 columns, 538 nonzeros

Iteration    Objective       Primal Inf.    Dual Inf.      Time
       0    4.3512966e+06   5.551735e+04   0.000000e+00      0s
     158    5.8093335e+06   0.000000e+00   0.000000e+00      0s

Solved in 158 iterations and 0.05 seconds
Optimal objective  5.809333499e+06
Optimize a model with 1177 rows, 5040 columns and 6216 nonzeros
Coefficient statistics:
  Matrix range    [1e+00, 1e+00]
  Objective range [1e+01, 3e+03]
  Bounds range    [1e+00, 2e+03]
  RHS range       [8e+00, 2e+04]
Presolve removed 1009 rows and 3864 columns
Presolve time: 0.02s
Presolved: 168 rows, 1176 columns, 1176 nonzeros

Iteration    Objective       Primal Inf.    Dual Inf.      Time
       0    0.0000000e+00   2.594095e+05   0.000000e+00      0s
     168    5.8093335e+06   0.000000e+00   0.000000e+00      0s

Solved in 168 iterations and 0.05 seconds
Optimal objective  5.809333499e+06
Optimize a model with 1009 rows, 5040 columns and 6048 nonzeros
Coefficient statistics:
  Matrix range    [1e+00, 1e+00]
  Objective range [1e+01, 3e+03]
  Bounds range    [1e+00, 2e+03]
  RHS range       [2e+02, 2e+04]
Presolve removed 840 rows and 4670 columns
Presolve time: 0.03s
Presolved: 169 rows, 370 columns, 538 nonzeros

Iteration    Objective       Primal Inf.    Dual Inf.      Time
       0    4.3512966e+06   5.551735e+04   0.000000e+00      0s
     158    5.8093335e+06   0.000000e+00   0.000000e+00      0s

Solved in 158 iterations and 0.05 seconds
Optimal objective  5.809333499e+06
Optimize a model with 1177 rows, 5040 columns and 6216 nonzeros
Coefficient statistics:
  Matrix range    [1e+00, 1e+00]
  Objective range [1e+01, 3e+03]
  Bounds range    [1e+00, 2e+03]
  RHS range       [8e+00, 2e+04]
Presolve removed 1009 rows and 3864 columns
Presolve time: 0.02s
Presolved: 168 rows, 1176 columns, 1176 nonzeros

Iteration    Objective       Primal Inf.    Dual Inf.      Time
       0    0.0000000e+00   2.594095e+05   0.000000e+00      0s
     168    5.8093335e+06   0.000000e+00   0.000000e+00      0s

Solved in 168 iterations and 0.03 seconds
Optimal objective  5.809333499e+06
Optimize a model with 1009 rows, 5040 columns and 6048 nonzeros
Coefficient statistics:
  Matrix range    [1e+00, 1e+00]
  Objective range [1e+01, 3e+03]
  Bounds range    [1e+00, 2e+03]
  RHS range       [2e+02, 2e+04]
Presolve removed 840 rows and 4670 columns
Presolve time: 0.02s
Presolved: 169 rows, 370 columns, 538 nonzeros

Iteration    Objective       Primal Inf.    Dual Inf.      Time
       0    4.3512966e+06   5.551735e+04   0.000000e+00      0s
     158    5.8093335e+06   0.000000e+00   0.000000e+00      0s

Solved in 158 iterations and 0.05 seconds
Optimal objective  5.809333499e+06
Optimize a model with 1177 rows, 5040 columns and 6216 nonzeros
Coefficient statistics:
  Matrix range    [1e+00, 1e+00]
  Objective range [1e+01, 3e+03]
  Bounds range    [1e+00, 2e+03]
  RHS range       [8e+00, 2e+04]
Presolve removed 1009 rows and 3864 columns
Presolve time: 0.04s
Presolved: 168 rows, 1176 columns, 1176 nonzeros

Iteration    Objective       Primal Inf.    Dual Inf.      Time
       0    0.0000000e+00   2.594095e+05   0.000000e+00      0s
     168    5.8093335e+06   0.000000e+00   0.000000e+00      0s

Solved in 168 iterations and 0.05 seconds
Optimal objective  5.809333499e+06
Optimize a model with 1009 rows, 5040 columns and 6048 nonzeros
Coefficient statistics:
  Matrix range    [1e+00, 1e+00]
  Objective range [1e+01, 3e+03]
  Bounds range    [1e+00, 2e+03]
  RHS range       [2e+02, 2e+04]
Presolve removed 840 rows and 4670 columns
Presolve time: 0.04s
Presolved: 169 rows, 370 columns, 538 nonzeros

Iteration    Objective       Primal Inf.    Dual Inf.      Time
       0    4.3512966e+06   5.551735e+04   0.000000e+00      0s
     158    5.8093335e+06   0.000000e+00   0.000000e+00      0s

Solved in 158 iterations and 0.05 seconds
Optimal objective  5.809333499e+06
Optimize a model with 1177 rows, 5040 columns and 6216 nonzeros
Coefficient statistics:
  Matrix range    [1e+00, 1e+00]
  Objective range [1e+01, 3e+03]
  Bounds range    [1e+00, 2e+03]
  RHS range       [8e+00, 2e+04]
Presolve removed 1009 rows and 3864 columns
Presolve time: 0.03s
Presolved: 168 rows, 1176 columns, 1176 nonzeros

Iteration    Objective       Primal Inf.    Dual Inf.      Time
       0    0.0000000e+00   2.594095e+05   0.000000e+00      0s
     168    5.8093335e+06   0.000000e+00   0.000000e+00      0s

Solved in 168 iterations and 0.04 seconds
Optimal objective  5.809333499e+06
Optimize a model with 1009 rows, 5040 columns and 6048 nonzeros
Coefficient statistics:
  Matrix range    [1e+00, 1e+00]
  Objective range [1e+01, 3e+03]
  Bounds range    [1e+00, 2e+03]
  RHS range       [2e+02, 2e+04]
Presolve removed 840 rows and 4670 columns
Presolve time: 0.02s
Presolved: 169 rows, 370 columns, 538 nonzeros

Iteration    Objective       Primal Inf.    Dual Inf.      Time
       0    4.3512966e+06   5.551735e+04   0.000000e+00      0s
     158    5.8093335e+06   0.000000e+00   0.000000e+00      0s

Solved in 158 iterations and 0.04 seconds
Optimal objective  5.809333499e+06
Optimize a model with 1177 rows, 5040 columns and 6216 nonzeros
Coefficient statistics:
  Matrix range    [1e+00, 1e+00]
  Objective range [1e+01, 3e+03]
  Bounds range    [1e+00, 2e+03]
  RHS range       [8e+00, 2e+04]
Presolve removed 1009 rows and 3864 columns
Presolve time: 0.03s
Presolved: 168 rows, 1176 columns, 1176 nonzeros

Iteration    Objective       Primal Inf.    Dual Inf.      Time
       0    0.0000000e+00   2.594095e+05   0.000000e+00      0s
     168    5.8093335e+06   0.000000e+00   0.000000e+00      0s

Solved in 168 iterations and 0.04 seconds
Optimal objective  5.809333499e+06
Optimize a model with 1009 rows, 5040 columns and 6048 nonzeros
Coefficient statistics:
  Matrix range    [1e+00, 1e+00]
  Objective range [1e+01, 3e+03]
  Bounds range    [1e+00, 2e+03]
  RHS range       [2e+02, 2e+04]
Presolve removed 840 rows and 4670 columns
Presolve time: 0.03s
Presolved: 169 rows, 370 columns, 538 nonzeros

Iteration    Objective       Primal Inf.    Dual Inf.      Time
       0    4.3512966e+06   5.551735e+04   0.000000e+00      0s
     158    5.8093335e+06   0.000000e+00   0.000000e+00      0s

Solved in 158 iterations and 0.06 seconds
Optimal objective  5.809333499e+06
Optimize a model with 1177 rows, 5040 columns and 6216 nonzeros
Coefficient statistics:
  Matrix range    [1e+00, 1e+00]
  Objective range [1e+01, 3e+03]
  Bounds range    [1e+00, 2e+03]
  RHS range       [8e+00, 2e+04]
Presolve removed 1009 rows and 3864 columns
Presolve time: 0.02s
Presolved: 168 rows, 1176 columns, 1176 nonzeros

Iteration    Objective       Primal Inf.    Dual Inf.      Time
       0    0.0000000e+00   2.594095e+05   0.000000e+00      0s
     168    5.8093335e+06   0.000000e+00   0.000000e+00      0s

Solved in 168 iterations and 0.04 seconds
Optimal objective  5.809333499e+06
Optimize a model with 1009 rows, 5040 columns and 6048 nonzeros
Coefficient statistics:
  Matrix range    [1e+00, 1e+00]
  Objective range [1e+01, 3e+03]
  Bounds range    [1e+00, 2e+03]
  RHS range       [2e+02, 2e+04]
Presolve removed 840 rows and 4670 columns
Presolve time: 0.03s
Presolved: 169 rows, 370 columns, 538 nonzeros

Iteration    Objective       Primal Inf.    Dual Inf.      Time
       0    4.3512966e+06   5.551735e+04   0.000000e+00      0s
     158    5.8093335e+06   0.000000e+00   0.000000e+00      0s

Solved in 158 iterations and 0.05 seconds
Optimal objective  5.809333499e+06
Optimize a model with 1177 rows, 5040 columns and 6216 nonzeros
Coefficient statistics:
  Matrix range    [1e+00, 1e+00]
  Objective range [1e+01, 3e+03]
  Bounds range    [1e+00, 2e+03]
  RHS range       [8e+00, 2e+04]
Presolve removed 1009 rows and 3864 columns
Presolve time: 0.03s
Presolved: 168 rows, 1176 columns, 1176 nonzeros

Iteration    Objective       Primal Inf.    Dual Inf.      Time
       0    0.0000000e+00   2.594095e+05   0.000000e+00      0s
     168    5.8093335e+06   0.000000e+00   0.000000e+00      0s

Solved in 168 iterations and 0.04 seconds
Optimal objective  5.809333499e+06
Optimize a model with 1009 rows, 5040 columns and 6048 nonzeros
Coefficient statistics:
  Matrix range    [1e+00, 1e+00]
  Objective range [1e+01, 3e+03]
  Bounds range    [1e+00, 2e+03]
  RHS range       [2e+02, 2e+04]
Presolve removed 840 rows and 4670 columns
Presolve time: 0.02s
Presolved: 169 rows, 370 columns, 538 nonzeros

Iteration    Objective       Primal Inf.    Dual Inf.      Time
       0    4.3512966e+06   5.551735e+04   0.000000e+00      0s
     158    5.8093335e+06   0.000000e+00   0.000000e+00      0s

Solved in 158 iterations and 0.05 seconds
Optimal objective  5.809333499e+06
Optimize a model with 1177 rows, 5040 columns and 6216 nonzeros
Coefficient statistics:
  Matrix range    [1e+00, 1e+00]
  Objective range [1e+01, 3e+03]
  Bounds range    [1e+00, 2e+03]
  RHS range       [8e+00, 2e+04]
Presolve removed 1009 rows and 3864 columns
Presolve time: 0.02s
Presolved: 168 rows, 1176 columns, 1176 nonzeros

Iteration    Objective       Primal Inf.    Dual Inf.      Time
       0    0.0000000e+00   2.594095e+05   0.000000e+00      0s
     168    5.8093335e+06   0.000000e+00   0.000000e+00      0s

Solved in 168 iterations and 0.03 seconds
Optimal objective  5.809333499e+06
Optimize a model with 1009 rows, 5040 columns and 6048 nonzeros
Coefficient statistics:
  Matrix range    [1e+00, 1e+00]
  Objective range [1e+01, 3e+03]
  Bounds range    [1e+00, 2e+03]
  RHS range       [2e+02, 2e+04]
Presolve removed 840 rows and 4670 columns
Presolve time: 0.03s
Presolved: 169 rows, 370 columns, 538 nonzeros

Iteration    Objective       Primal Inf.    Dual Inf.      Time
       0    4.3512966e+06   5.551735e+04   0.000000e+00      0s
     158    5.8093335e+06   0.000000e+00   0.000000e+00      0s

Solved in 158 iterations and 0.04 seconds
Optimal objective  5.809333499e+06
Optimize a model with 1177 rows, 5040 columns and 6216 nonzeros
Coefficient statistics:
  Matrix range    [1e+00, 1e+00]
  Objective range [1e+01, 3e+03]
  Bounds range    [1e+00, 2e+03]
  RHS range       [8e+00, 2e+04]
Presolve removed 1009 rows and 3864 columns
Presolve time: 0.03s
Presolved: 168 rows, 1176 columns, 1176 nonzeros

Iteration    Objective       Primal Inf.    Dual Inf.      Time
       0    0.0000000e+00   2.594095e+05   0.000000e+00      0s
     168    5.8093335e+06   0.000000e+00   0.000000e+00      0s

Solved in 168 iterations and 0.05 seconds
Optimal objective  5.809333499e+06
Optimize a model with 1009 rows, 5040 columns and 6048 nonzeros
Coefficient statistics:
  Matrix range    [1e+00, 1e+00]
  Objective range [1e+01, 3e+03]
  Bounds range    [1e+00, 2e+03]
  RHS range       [2e+02, 2e+04]
Presolve removed 840 rows and 4670 columns
Presolve time: 0.03s
Presolved: 169 rows, 370 columns, 538 nonzeros

Iteration    Objective       Primal Inf.    Dual Inf.      Time
       0    4.3512966e+06   5.551735e+04   0.000000e+00      0s
     158    5.8093335e+06   0.000000e+00   0.000000e+00      0s

Solved in 158 iterations and 0.05 seconds
Optimal objective  5.809333499e+06
Optimize a model with 1177 rows, 5040 columns and 6216 nonzeros
Coefficient statistics:
  Matrix range    [1e+00, 1e+00]
  Objective range [1e+01, 3e+03]
  Bounds range    [1e+00, 2e+03]
  RHS range       [8e+00, 2e+04]
Presolve removed 1009 rows and 3864 columns
Presolve time: 0.02s
Presolved: 168 rows, 1176 columns, 1176 nonzeros

Iteration    Objective       Primal Inf.    Dual Inf.      Time
       0    0.0000000e+00   2.594095e+05   0.000000e+00      0s
     168    5.8093335e+06   0.000000e+00   0.000000e+00      0s

Solved in 168 iterations and 0.04 seconds
Optimal objective  5.809333499e+06
Optimize a model with 1009 rows, 4368 columns and 5376 nonzeros
Coefficient statistics:
  Matrix range    [1e+00, 1e+00]
  Objective range [1e+01, 3e+03]
  Bounds range    [5e-01, 2e+03]
  RHS range       [2e+02, 2e+04]
Presolve removed 840 rows and 3991 columns
Presolve time: 0.02s
Presolved: 169 rows, 377 columns, 545 nonzeros

Iteration    Objective       Primal Inf.    Dual Inf.      Time
       0    4.1412901e+06   6.094726e+04   0.000000e+00      0s
     147    5.6825618e+06   0.000000e+00   0.000000e+00      0s

Solved in 147 iterations and 0.07 seconds
Optimal objective  5.682561757e+06
Optimize a model with 1177 rows, 4368 columns and 5544 nonzeros
Coefficient statistics:
  Matrix range    [1e+00, 1e+00]
  Objective range [1e+01, 3e+03]
  Bounds range    [5e-01, 2e+03]
  RHS range       [8e+00, 2e+04]
Presolve removed 1009 rows and 3192 columns
Presolve time: 0.04s
Presolved: 168 rows, 1176 columns, 1176 nonzeros

Iteration    Objective       Primal Inf.    Dual Inf.      Time
       0    0.0000000e+00   2.562875e+05   0.000000e+00      0s
     168    5.6825618e+06   0.000000e+00   0.000000e+00      0s

Solved in 168 iterations and 0.06 seconds
Optimal objective  5.682561757e+06
Optimize a model with 1009 rows, 4368 columns and 5376 nonzeros
Coefficient statistics:
  Matrix range    [1e+00, 1e+00]
  Objective range [1e+01, 3e+03]
  Bounds range    [5e-01, 2e+03]
  RHS range       [2e+02, 2e+04]
Presolve removed 840 rows and 3991 columns
Presolve time: 0.02s
Presolved: 169 rows, 377 columns, 545 nonzeros

Iteration    Objective       Primal Inf.    Dual Inf.      Time
       0    4.1412901e+06   6.094726e+04   0.000000e+00      0s
     147    5.6825618e+06   0.000000e+00   0.000000e+00      0s

Solved in 147 iterations and 0.05 seconds
Optimal objective  5.682561757e+06
Optimize a model with 1177 rows, 4368 columns and 5544 nonzeros
Coefficient statistics:
  Matrix range    [1e+00, 1e+00]
  Objective range [1e+01, 3e+03]
  Bounds range    [5e-01, 2e+03]
  RHS range       [8e+00, 2e+04]
Presolve removed 1009 rows and 3192 columns
Presolve time: 0.03s
Presolved: 168 rows, 1176 columns, 1176 nonzeros

Iteration    Objective       Primal Inf.    Dual Inf.      Time
       0    0.0000000e+00   2.562875e+05   0.000000e+00      0s
     168    5.6825618e+06   0.000000e+00   0.000000e+00      0s

Solved in 168 iterations and 0.04 seconds
Optimal objective  5.682561757e+06
